2
1000 6
43
151 1 2
152 1 2
153 1 3
154 1 5
155 1 5
156 1 1
157 1 1
159 1 3
160 1 2
161 1 3
162 1 4
163 1 1
164 1 4
165 1 2
166 1 4
167 1 5
168 1 1
170 1 2
171 1 2
172 1 2
173 1 1
175 1 1
176 1 2
177 1 2
178 1 3
179 1 3
180 1 7
181 1 4
182 1 3
183 1 4
184 1 3
185 1 4
186 1 1
187 1 2
188 1 5
190 1 3
191 1 2
193 1 1
194 1 3
196 1 5
197 1 2
198 1 2
200 1 3
